
******************************************************************************
This program contains Ipopt, a library for large-scale nonlinear optimization.
 Ipopt is released as open source code under the Eclipse Public License (EPL).
         For more information visit http://projects.coin-or.org/Ipopt
******************************************************************************

This is Ipopt version 3.12.6, running with linear solver ma57.

Number of nonzeros in equality constraint Jacobian...:        0
Number of nonzeros in inequality constraint Jacobian.:        0
Number of nonzeros in Lagrangian Hessian.............:        3

Total number of variables............................:        2
                     variables with only lower bounds:        0
                variables with lower and upper bounds:        0
                     variables with only upper bounds:        0
Total number of equality constraints.................:        0
Total number of inequality constraints...............:        0
        inequality constraints with only lower bounds:        0
   inequality constraints with lower and upper bounds:        0
        inequality constraints with only upper bounds:        0

iter    objective    inf_pr   inf_du lg(mu)  ||d||  lg(rg) alpha_du alpha_pr  ls
   0  1.4556091e+01 0.00e+00 1.00e+02  -1.0 0.00e+00    -  0.00e+00 0.00e+00   0
   1  7.2699567e+00 0.00e+00 2.35e+01  -1.0 6.08e-02    -  1.00e+00 1.00e+00f  1
   2  6.3075336e+00 0.00e+00 6.46e+00  -1.0 8.44e-02    -  1.00e+00 1.00e+00f  1
   3  6.1709809e+00 0.00e+00 1.05e+00  -1.0 6.99e-02    -  1.00e+00 1.00e+00f  1
   4  6.1660513e+00 0.00e+00 4.28e-02  -1.0 2.13e-02    -  1.00e+00 1.00e+00f  1
   5  6.1660422e+00 0.00e+00 8.13e-05  -2.5 1.16e-03    -  1.00e+00 1.00e+00f  1
   6  6.1660422e+00 0.00e+00 3.05e-10  -5.7 2.60e-06    -  1.00e+00 1.00e+00f  1

Number of Iterations....: 6

                                   (scaled)                 (unscaled)
Objective...............:   1.3520539880315201e+00    6.1660422124177483e+00
Dual infeasibility......:   3.0457907876549982e-10    1.3890328887100623e-09
Constraint violation....:   0.0000000000000000e+00    0.0000000000000000e+00
Complementarity.........:   0.0000000000000000e+00    0.0000000000000000e+00
Overall NLP error.......:   3.0457907876549982e-10    1.3890328887100623e-09


Number of objective function evaluations             = 7
Number of objective gradient evaluations             = 7
Number of equality constraint evaluations            = 0
Number of inequality constraint evaluations          = 0
Number of equality constraint Jacobian evaluations   = 0
Number of inequality constraint Jacobian evaluations = 0
Number of Lagrangian Hessian evaluations             = 6
Total CPU secs in IPOPT (w/o function evaluations)   =      0.003
Total CPU secs in NLP function evaluations           =      0.003

EXIT: Optimal Solution Found.

 ** SUBROUTINE CUTEST_csetup: Warning. The problem has no general constraints. 
 ** Other tools may be preferable ** 

************************ CUTEst statistics ************************


 Package used            :  IPOPT
 Problem                 :  AKIVA     
 # variables             =               2
 # constraints           =               0
 # objective functions   =        0.1500000E+02
 # objective gradients   =        0.8000000E+01
 # objective Hessians    =        0.7000000E+01
 # Hessian-vector prdct  =        0.0000000E+00
 # constraints functions =        0.0000000E+00
 # constraints gradients =        0.0000000E+00
 # constraints Hessians  =        0.0000000E+00
 Exit code               =               0
 Final f                 =   0.6166042E+01
 Set up time             =            0.00 seconds
 Solve time              =            0.01 seconds


******************************************************************

System Time =       0.0030000000 s.
